; tortoise-orm :: corpus-study/repo_src/tortoise-orm/tortoise/backends/asyncpg/client.py :: wait_for at _close:82 :: structured encoding (verdict: unsat)
; Generated by snf-pipeline (encoder.py) -- run with any
; SMT-LIB2-compliant solver, e.g. `z3 tortoise-orm__corpus-study_repo_src_tortoise-orm_tortoise_backends_asyncpg_client.py__waitfor__close_L82__structured.smt2`
; benchmark generated from python API
(set-info :status unknown)
(declare-fun timeout_fires () Bool)
(declare-fun completes_first () Bool)
(declare-fun cleanup_ran () Bool)
(assert
 (or completes_first timeout_fires))
(assert
 (=> timeout_fires cleanup_ran))
(assert
 (let (($x27 (not cleanup_ran)))
(and timeout_fires $x27)))
(check-sat)
